<number of tasks>
250

<cycle time>
1000

<order strength>
0.896


<task times>
1 33
2 102
3 97
4 185
5 123
6 229
7 114
8 98
9 219
10 280
11 210
12 73
13 146
14 147
15 165
16 87
17 148
18 284
19 61
20 152
21 87
22 127
23 78
24 155
25 187
26 228
27 253
28 119
29 204
30 39
31 69
32 64
33 137
34 143
35 103
36 47
37 126
38 132
39 80
40 82
41 117
42 171
43 72
44 104
45 96
46 59
47 220
48 68
49 93
50 145
51 130
52 43
53 209
54 82
55 188
56 26
57 103
58 72
59 258
60 245
61 96
62 115
63 100
64 191
65 225
66 57
67 152
68 109
69 155
70 149
71 64
72 72
73 228
74 180
75 160
76 200
77 53
78 102
79 270
80 69
81 124
82 137
83 252
84 258
85 164
86 220
87 305
88 47
89 198
90 63
91 142
92 139
93 175
94 245
95 125
96 127
97 33
98 255
99 79
100 30
101 208
102 146
103 142
104 86
105 31
106 242
107 155
108 193
109 212
110 164
111 114
112 176
113 261
114 63
115 126
116 79
117 219
118 50
119 84
120 93
121 146
122 20
123 216
124 104
125 32
126 59
127 42
128 138
129 80
130 322
131 230
132 185
133 147
134 257
135 191
136 40
137 112
138 99
139 236
140 165
141 94
142 64
143 102
144 291
145 150
146 151
147 147
148 69
149 149
150 265
151 349
152 144
153 119
154 231
155 84
156 50
157 131
158 113
159 217
160 143
161 112
162 84
163 32
164 130
165 229
166 143
167 312
168 123
169 89
170 35
171 169
172 111
173 240
174 143
175 269
176 155
177 58
178 126
179 89
180 73
181 175
182 85
183 95
184 197
185 110
186 158
187 85
188 220
189 66
190 231
191 172
192 32
193 83
194 148
195 91
196 130
197 124
198 197
199 122
200 83
201 166
202 114
203 35
204 279
205 62
206 160
207 141
208 85
209 67
210 269
211 28
212 121
213 60
214 274
215 116
216 73
217 82
218 92
219 61
220 94
221 73
222 195
223 119
224 295
225 158
226 95
227 283
228 111
229 216
230 106
231 147
232 58
233 54
234 71
235 60
236 200
237 64
238 52
239 85
240 35
241 239
242 68
243 139
244 66
245 131
246 59
247 133
248 204
249 68
250 169

<precedence relations>
1,3
1,4
1,5
1,6
1,7
1,8
2,3
2,4
2,5
2,6
2,7
2,8
3,9
3,10
3,12
4,9
4,10
4,11
4,12
5,9
5,10
5,11
5,12
6,9
6,10
6,11
6,12
7,9
7,10
7,11
7,12
8,9
8,10
8,11
8,12
9,13
9,14
9,15
9,16
9,17
10,13
10,14
10,15
10,16
10,17
11,13
11,14
11,30
12,13
12,14
12,15
12,17
13,47
14,45
14,46
14,50
15,18
15,19
15,20
15,21
15,22
16,18
16,19
16,20
16,21
16,22
17,18
17,19
17,20
17,21
17,22
18,23
18,24
18,25
18,26
19,23
19,24
19,25
19,26
20,23
20,24
20,25
20,26
21,23
21,24
21,25
21,26
22,23
22,24
22,25
22,26
23,27
23,28
23,29
24,27
24,28
24,29
25,27
25,28
25,29
26,27
26,28
26,29
27,30
27,31
27,32
28,30
28,31
28,32
29,30
29,31
29,38
30,36
30,37
31,33
31,34
31,35
31,36
32,33
32,34
32,35
32,36
32,38
33,47
33,65
34,98
35,39
35,40
35,42
36,39
37,39
37,40
37,41
37,42
38,39
38,40
38,41
38,42
39,43
39,44
39,45
39,46
40,43
40,44
40,45
40,46
41,46
41,50
42,43
42,44
42,45
42,46
43,47
43,48
43,49
43,50
44,47
44,50
45,47
45,48
45,49
46,47
46,49
47,78
47,81
48,51
48,52
48,53
48,54
49,52
49,53
49,54
50,51
50,52
50,53
50,54
51,75
52,55
52,56
52,58
53,55
53,56
53,57
53,58
54,55
54,56
54,57
54,58
55,59
55,60
55,61
55,62
56,59
56,60
56,61
56,62
57,59
58,59
58,60
58,61
58,62
59,63
59,66
60,63
60,68
61,63
61,65
61,66
61,67
61,68
62,63
62,64
62,65
62,66
62,67
62,68
63,69
63,70
63,71
63,72
63,73
64,69
64,70
64,71
64,72
64,73
65,69
65,70
65,71
65,72
65,73
66,69
66,70
66,71
66,72
66,73
67,69
67,70
67,71
67,72
67,73
68,69
68,70
68,71
68,72
68,73
69,74
69,75
70,74
70,75
71,74
71,75
72,74
72,75
73,74
73,75
74,76
74,77
74,78
74,79
74,81
75,77
75,78
75,79
75,80
75,81
76,82
76,83
76,84
77,82
77,83
77,84
78,82
78,83
78,84
79,82
79,83
79,84
80,82
81,82
82,86
83,85
83,86
83,87
83,88
83,89
84,85
84,86
84,87
85,90
85,91
85,92
85,93
86,90
86,91
86,92
87,90
87,93
87,94
88,90
88,91
89,112
89,113
90,159
90,171
91,95
91,103
91,122
92,95
92,96
92,97
92,98
93,95
93,96
93,97
93,98
94,95
94,96
94,97
95,163
95,166
96,99
96,100
96,101
97,99
97,100
97,102
97,103
98,109
99,104
99,107
100,104
100,108
101,104
101,105
101,106
101,108
102,104
102,105
103,114
103,119
104,109
105,109
105,110
105,111
105,113
106,112
106,113
107,109
107,110
107,111
107,112
107,113
108,110
108,120
109,114
109,119
109,122
110,159
110,162
110,170
111,114
111,115
112,114
112,115
113,114
113,115
114,117
114,118
115,116
115,117
115,118
115,119
116,122
116,131
117,121
117,143
118,120
118,123
118,124
118,126
119,120
119,121
119,152
120,128
120,157
121,125
122,125
122,126
123,125
123,133
123,137
123,139
124,127
125,129
125,135
126,129
126,130
126,132
126,133
127,131
127,132
127,134
128,129
128,142
129,138
129,161
130,136
130,137
130,139
130,140
131,136
131,141
131,152
132,151
133,140
134,137
134,138
134,139
134,140
135,158
136,144
136,170
137,141
137,142
137,146
138,145
139,141
139,152
140,141
140,142
140,143
140,144
140,145
140,146
141,147
141,148
141,150
141,156
142,164
142,169
143,147
143,148
143,152
143,156
144,147
144,155
145,147
145,151
146,148
146,149
147,158
148,153
148,154
148,157
148,162
149,156
149,164
150,153
150,154
150,155
150,158
150,163
151,153
151,154
151,155
151,156
152,201
154,159
154,160
155,162
156,184
156,185
157,161
157,163
157,168
158,159
159,165
160,164
160,176
160,179
161,170
162,171
162,194
164,166
164,167
164,170
164,171
165,166
165,168
165,169
165,172
166,174
166,182
167,173
168,174
169,175
170,173
171,189
172,173
172,174
172,175
173,177
174,180
174,212
174,231
175,176
175,177
175,178
175,179
176,181
177,181
177,182
177,183
178,225
178,235
179,236
180,219
180,230
181,194
181,209
181,211
182,184
182,185
182,186
183,184
184,187
185,187
185,200
186,188
186,189
186,193
186,194
187,193
187,194
188,190
188,191
188,192
189,192
189,196
189,197
189,200
190,195
190,196
190,197
191,200
192,195
192,198
192,199
193,197
194,195
194,197
194,202
195,205
195,225
197,201
197,203
197,218
197,221
198,221
199,202
199,204
199,206
200,217
200,220
202,207
203,206
203,208
203,213
204,209
204,210
204,229
206,212
206,220
207,214
207,222
208,240
208,243
208,247
209,215
209,218
210,211
210,213
211,218
212,217
213,216
213,219
213,223
213,237
214,215
215,220
215,221
215,223
216,246
217,222
217,223
218,226
219,238
220,230
221,225
221,226
222,224
222,228
222,229
223,224
223,227
224,232
226,231
226,233
226,236
228,238
228,250
229,249
230,240
231,237
231,238
232,234
232,235
232,236
233,235
234,240
235,239
237,247
238,241
239,242
239,244
239,245
240,246
241,242
241,243
241,247
242,249
243,248
246,250

<end>
